NAME : cgl_44.8949.tour
COMMENT : Length = 8949
COMMENT : Found by LKH-3 [Keld Helsgaun] Fri Nov  8 17:38:18 2024
TYPE : TOUR
DIMENSION : 45
TOUR_SECTION
17
16
18
19
20
21
22
23
24
35
44
37
43
36
38
41
42
40
39
25
34
33
31
30
32
27
28
26
29
45
5
4
3
2
10
7
8
11
9
6
1
12
14
13
15
-1
EOF
